; benchmark generated from python API
(set-info :status unknown)
(declare-datatypes ((RealState 0)) (((RMk1 (rval1 Real)) (RMk2 (rval2 Real)))))
 (assert
 (forall ((|v17:0| Real) )(forall ((|v16:1| Real) )(forall ((|v15:2| Real) )(forall ((|v14:3| Real) )(forall ((|v13:4| Real) )(forall ((|v12:5| Real) )(exists ((|v11:6_st| RealState) (val!8904 Real) )(exists ((|v10:7_st| RealState) (val!8905 Real) )(exists ((|v9:8_st| RealState) (val!8906 Real) )(exists ((|v8:9_st| RealState) (val!8907 Real) )(exists ((|v7:10_st| RealState) (val!8908 Real) )(exists ((|v6:11_st| RealState) (val!8909 Real) )(forall ((|v5:12| Real) )(forall ((|v4:13| Real) )(forall ((|v3:14| Real) )(forall ((|v2:15| Real) )(forall ((|v1:16| Real) )(forall ((|v0:17| Real) )(let ((?x4409 (* (- 10.0) |v1:16|)))
 (let ((?x6868 (* (- 16.0) |v5:12|)))
 (let ((?x5412 (+ (+ (+ (* (- 14.0) |v12:5|) (* (- 20.0) |v4:13|)) ?x6868) (* (- 9.0) |v13:4|))))
 (and (not (= |v11:6_st| (RMk1 val!8904))) (not (= |v10:7_st| (RMk1 val!8905))) (not (= |v9:8_st| (RMk1 val!8906))) (not (= |v8:9_st| (RMk1 val!8907))) (not (= |v7:10_st| (RMk1 val!8908))) (not (= |v6:11_st| (RMk1 val!8909))) (<= (+ (+ (+ ?x5412 ?x4409) ?x4409) (* 18.0 |v12:5|)) 4.0))))))
 )
 )
 )
 )
 )
 )
 )
 )
 )
 )
 )
 )
 )
 )
 )
 )
 )
 )
(check-sat)
